p cnf 1020 1261
c ind 693 694 695 708 715 741 802 803 816 823 0
c ind 827 829 832 848 850 853 865 866 885 887 0
c ind 891 902 903 907 908 909 913 915 686 801 0
c ind 716 728 687 688 800 691 692 799 1005 987 0
c ind 996 1010 973 991 1001 1018 974 972 1004 986 0
c ind 995 1009 990 1000 1017 971 1003 985 994 1008 0
c ind 989 999 1016 1002 984 993 1007 988 998 1015 0
c ind 969 979 983 1013 970 968 963 967 966 965 0
c ind 964 981 1011 982 1012 961 962 992 1006 997 0
c ind 1014 960 955 959 958 957 689 690 956 980 0
c ind 953 954 946 947 952 976 951 950 949 948 0
c ind 944 945 943 977 942 940 941 939 934 938 0
c ind 937 936 935 932 933 978 931 926 930 929 0
c ind 928 927 975 924 925 917 918 923 922 921 0
c ind 920 919 897 898 896 895 894 916 906 904 0
c ind 905 893 892 914 901 890 912 910 911 899 0
c ind 900 889 888 881 886 884 882 883 880 873 0
c ind 872 879 878 877 876 875 874 871 870 869 0
c ind 868 867 685 860 859 857 858 856 855 861 0
c ind 862 854 852 863 851 864 849 847 845 846 0
c ind 844 843 842 841 840 839 838 836 837 835 0
c ind 834 833 831 830 828 806 826 824 825 822 0
c ind 817 821 818 819 813 820 815 811 812 814 0
c ind 698 810 805 809 807 808 804 798 791 783 0
c ind 797 796 795 794 777 776 775 793 774 792 0
c ind 773 772 771 790 789 788 787 786 785 784 0
c ind 782 781 780 779 778 770 763 755 769 768 0
c ind 767 766 749 748 747 765 746 764 745 744 0
c ind 743 762 761 760 759 758 757 756 754 753 0
c ind 752 751 750 742 740 738 739 729 730 737 0
c ind 736 735 734 733 731 732 725 724 726 727 0
c ind 723 722 721 720 718 719 717 714 713 709 0
c ind 710 711 712 705 707 704 703 706 697 702 0
c ind 696 701 699 700 1 0
c ret 598 599 600 601 602 603 604 605 606 607 0
c ret 608 609 610 611 612 613 614 615 616 617 0
c ret 618 619 620 621 622 623 624 625 626 627 0
c ret 628 629 630 631 632 633 634 635 636 637 0
c ret 638 639 640 641 642 643 644 645 646 647 0
c ret 648 649 650 651 293 652 653 299 300 301 0
c ret 302 303 304 305 306 307 654 308 655 309 0
c ret 310 311 656 312 657 313 314 315 316 317 0
c ret 318 319 658 320 321 322 659 660 323 324 0
c ret 661 662 325 326 327 328 329 330 331 663 0
c ret 332 333 334 335 294 336 664 665 337 338 0
c ret 339 340 666 667 341 342 343 344 345 346 0
c ret 347 348 349 350 668 669 351 352 353 670 0
c ret 671 354 355 356 357 358 359 360 361 672 0
c ret 362 363 364 365 366 367 673 368 674 369 0
c ret 675 370 676 371 372 373 374 375 376 295 0
c ret 377 677 678 378 379 679 380 381 382 383 0
c ret 384 385 386 387 388 389 390 680 391 392 0
c ret 393 394 395 396 681 397 682 398 683 399 0
c ret 684 400 401 402 403 404 405 406 407 408 0
c ret 409 410 411 412 413 414 415 416 296 417 0
c ret 418 419 420 421 422 423 424 425 426 427 0
c ret 428 429 430 431 432 433 434 435 436 437 0
c ret 438 439 440 441 442 443 444 445 446 447 0
c ret 448 449 450 451 452 453 454 455 456 457 0
c ret 458 459 460 461 462 463 464 465 466 467 0
c ret 468 469 470 471 472 473 474 475 476 477 0
c ret 478 479 480 481 482 483 484 485 486 487 0
c ret 297 488 489 490 491 492 493 494 495 496 0
c ret 497 498 499 500 501 502 503 504 505 506 0
c ret 507 508 509 510 511 512 513 514 515 516 0
c ret 517 518 519 520 521 522 523 524 525 526 0
c ret 298 527 528 529 530 531 532 533 534 535 0
c ret 536 537 538 539 540 541 542 543 544 545 0
c ret 546 547 548 549 550 551 552 553 554 555 0
c ret 556 557 558 559 560 561 562 563 564 565 0
c ret 566 567 568 569 570 571 572 573 574 575 0
c ret 576 577 578 579 580 581 582 583 584 585 0
c ret 586 587 588 589 590 591 592 593 594 595 0
c ret 596 597 0
2 4 5 -288 0
2 3 5 -288 0
-2 288 0
-2 -5 0
-2 -3 -4 0
3 525 0
3 -526 532 0
3 526 533 0
-3 -525 526 -533 0
-3 -525 -526 -532 0
4 525 0
4 -526 -532 0
4 526 -533 0
-4 -525 526 533 0
-4 -525 -526 532 0
5 6 -100 -121 0
5 -54 -100 -121 0
-5 121 0
-5 100 0
-5 -6 54 0
6 -7 -13 0
6 -7 50 0
-6 7 0
-6 13 -50 0
7 9 -946 0
7 8 12 -946 0
-7 946 0
-7 -8 -9 0
-7 -9 -12 0
8 917 0
8 -918 -924 0
8 918 -925 0
-8 -917 918 925 0
-8 -917 -918 924 0
9 -10 -11 0
-8 9 -11 0
-9 11 0
8 -9 10 0
-8 10 0
10 926 -933 0
10 -926 -932 0
8 -10 -926 932 0
8 -10 926 933 0
11 917 0
11 -918 924 0
11 918 925 0
-11 -917 918 -925 0
-11 -917 -918 -924 0
-8 12 0
12 -926 932 0
12 926 933 0
8 -12 -926 -932 0
8 -12 926 -933 0
13 -14 -49 -1018 0
13 14 -15 -49 0
-13 49 0
-13 -14 1018 0
-13 14 15 0
14 912 -914 0
-14 -912 0
-14 914 0
15 -16 -1017 0
15 16 -17 0
-15 -16 1017 0
-15 16 17 0
16 884 -886 0
-16 -884 0
-16 886 0
17 18 41 48 0
17 18 41 -44 0
-17 -18 0
-17 -41 0
-17 44 -48 0
18 -39 685 -860 0
18 19 685 860 0
-18 -685 0
-18 39 -860 0
-18 -19 860 0
19 -20 -1014 0
-19 1014 0
-19 20 0
20 -21 35 0
-20 21 0
-20 -35 0
21 -28 29 0
21 22 29 -750 0
-21 -29 0
-21 -22 28 0
-21 28 750 0
22 23 0
22 26 -749 0
22 26 755 0
-22 -23 -26 0
-22 -23 749 -755 0
23 -24 25 -743 -750 0
-23 24 0
-23 -25 0
-23 743 0
-23 750 0
24 744 745 746 0
-24 -744 0
-24 -746 0
-24 -745 0
25 747 -748 0
-25 -747 0
-25 748 0
26 27 749 755 -756 0
-26 -749 0
-26 -27 0
-26 756 0
-26 -755 0
27 763 764 0
-27 -763 0
-27 -764 0
24 28 -743 0
25 28 -743 -749 0
-28 743 0
-24 -28 749 0
-24 -25 -28 0
29 31 34 0
29 31 -33 0
29 30 31 0
-29 -31 0
-29 -30 33 -34 0
30 772 773 774 0
-30 -772 0
-30 -774 0
-30 -773 0
30 31 -771 0
31 32 -771 -777 0
-31 771 0
-30 -31 777 0
-30 -31 -32 0
32 775 -776 0
-32 -775 0
-32 776 0
33 783 784 0
33 783 791 792 0
-33 -783 0
-33 -784 -791 0
-33 -784 -792 0
32 34 -771 777 -778 0
-34 778 0
-32 -34 0
-34 771 0
-34 -777 0
35 -36 -717 0
35 -38 -717 0
35 -37 -717 0
-35 717 0
-35 36 37 38 0
36 -718 719 720 0
-36 718 0
-36 -720 0
-36 -719 0
37 723 726 727 0
-37 -723 0
-37 -727 0
-37 -726 0
38 -723 724 725 0
-38 723 0
-38 -725 0
-38 -724 0
39 -40 1015 0
19 39 40 0
-39 -40 -1015 0
-19 -39 40 0
40 826 -828 0
-40 -826 0
-40 828 0
41 -42 -43 -870 0
41 -42 -43 -871 0
-41 43 0
-41 42 0
-41 870 871 0
42 873 874 875 876 0
-42 -876 0
-42 -875 0
-42 -873 0
-42 -874 0
43 -867 -868 -869 872 0
-43 869 0
-43 -872 0
-43 867 0
-43 868 0
39 44 -45 0
-39 -44 0
-44 45 0
45 46 47 0
-45 -46 0
-45 -47 0
46 839 840 841 0
-46 -839 0
-46 -841 0
-46 -840 0
47 847 -849 0
-47 -847 0
-47 849 0
47 48 -685 0
48 -685 1016 0
-48 685 0
-47 -48 -1016 0
49 -881 888 0
-49 881 0
-49 -888 0
50 51 -881 0
15 17 50 0
17 50 51 0
15 50 -881 0
-17 -50 881 0
-15 -50 -51 0
51 53 -881 -888 0
51 52 -881 -888 0
-51 881 0
-51 888 0
-51 -52 -53 0
52 -889 890 0
-52 889 0
-52 -890 0
53 892 -893 -894 895 0
-53 -892 0
-53 -895 0
-53 894 0
-53 893 0
54 -55 -57 0
54 -55 96 0
-54 55 0
-54 57 -96 0
4 55 -56 0
3 55 -56 0
-55 56 0
-3 -4 -55 0
56 -554 -583 -612 0
-56 554 0
-56 583 0
-56 612 0
57 -58 -95 -684 0
57 58 -59 -95 0
-57 95 0
-57 -58 684 0
-57 58 59 0
58 520 -522 0
-58 -520 0
-58 522 0
59 -60 -683 0
59 60 -61 0
-59 -60 683 0
-59 60 61 0
60 492 -494 0
-60 -492 0
-60 494 0
61 62 87 94 0
61 62 87 -90 0
-61 -62 0
-61 -87 0
-61 90 -94 0
62 -85 293 -468 0
62 63 293 468 0
-62 -293 0
-62 85 -468 0
-62 -63 468 0
63 -64 -680 0
-63 680 0
-63 64 0
64 65 -69 0
-64 -65 0
-64 69 0
65 -66 -325 0
65 -68 -325 0
65 -67 -325 0
-65 325 0
-65 66 67 68 0
66 -326 327 328 0
-66 326 0
-66 -328 0
-66 -327 0
67 331 334 335 0
-67 -331 0
-67 -335 0
-67 -334 0
68 -331 332 333 0
-68 331 0
-68 -333 0
-68 -332 0
69 70 -77 0
69 70 80 -358 0
-69 -70 0
-69 77 -80 0
-69 77 358 0
70 -71 74 0
70 74 379 0
-70 -74 0
-70 71 -379 0
71 -73 382 385 0
71 -72 -73 382 0
-71 -382 0
-71 73 0
-71 72 -385 0
72 383 -384 0
-72 -383 0
-72 384 0
73 380 381 0
-73 -380 0
-73 -381 0
72 -73 74 75 -76 0
73 -74 0
-74 -75 0
-72 -74 0
-74 76 0
75 391 392 0
75 391 399 400 0
-75 -391 0
-75 -392 -399 0
-75 -392 -400 0
76 -379 382 385 -386 0
-76 386 0
-76 -385 0
-76 379 0
-76 -382 0
77 78 -351 0
77 79 -351 -357 0
-77 351 0
-77 -78 357 0
-77 -78 -79 0
78 352 353 354 0
-78 -352 0
-78 -354 0
-78 -353 0
79 355 -356 0
-79 -355 0
-79 356 0
80 81 83 0
-80 -81 0
-80 -83 0
81 -82 357 -363 0
-81 82 0
-81 363 0
-81 -357 0
-78 79 82 -351 -358 0
78 -82 0
-79 -82 0
-82 351 0
-82 358 0
-82 83 -84 -371 0
-82 83 -84 -372 0
-83 84 0
82 -83 0
-83 371 372 0
84 357 363 -364 0
-84 364 0
-84 -363 0
-84 -357 0
85 -86 681 0
63 85 86 0
-85 -86 -681 0
-63 -85 86 0
86 434 -436 0
-86 -434 0
-86 436 0
87 -88 -89 -478 0
87 -88 -89 -479 0
-87 89 0
-87 88 0
-87 478 479 0
88 481 482 483 484 0
-88 -484 0
-88 -483 0
-88 -481 0
-88 -482 0
89 -475 -476 -477 480 0
-89 477 0
-89 -480 0
-89 475 0
-89 476 0
85 90 -91 0
-85 -90 0
-90 91 0
91 92 93 0
-91 -92 0
-91 -93 0
92 447 448 449 0
-92 -447 0
-92 -449 0
-92 -448 0
93 455 -457 0
-93 -455 0
-93 457 0
93 94 -293 0
94 -293 682 0
-94 293 0
-93 -94 -682 0
95 -489 496 0
-95 489 0
-95 -496 0
96 97 -489 0
59 61 96 0
61 96 97 0
59 96 -489 0
-61 -96 489 0
-59 -96 -97 0
97 99 -489 -496 0
97 98 -489 -496 0
-97 489 0
-97 496 0
-97 -98 -99 0
98 -497 498 0
-98 497 0
-98 -498 0
99 500 -501 -502 503 0
-99 -500 0
-99 -503 0
-99 502 0
-99 501 0
100 -101 -111 0
100 101 111 0
-100 101 -111 0
-100 -101 111 0
-7 101 -102 0
-7 101 110 0
7 -101 0
-101 102 -110 0
14 -49 102 -103 0
-14 -49 102 -996 0
49 -102 0
14 -102 103 0
-14 -102 996 0
-16 103 -995 0
16 103 -104 0
-16 -103 995 0
16 -103 104 0
41 104 105 109 0
41 104 105 -108 0
-41 -104 0
-104 -105 0
-104 108 -109 0
105 -107 685 -860 0
105 106 685 860 0
-105 -685 0
-105 107 -860 0
-105 -106 860 0
-20 106 -992 0
-106 992 0
20 -106 0
-40 107 993 0
40 106 107 0
-40 -107 -993 0
40 -106 -107 0
-45 107 108 0
45 -108 0
-107 -108 0
47 109 -685 0
109 -685 994 0
-109 685 0
-47 -109 -994 0
103 110 -881 0
51 104 110 0
103 104 110 0
51 110 -881 0
-51 -103 -110 0
-104 -110 881 0
-55 111 -112 0
-55 111 120 0
55 -111 0
-111 112 -120 0
58 -95 112 -113 0
-58 -95 112 -662 0
95 -112 0
58 -112 113 0
-58 -112 662 0
-60 113 -661 0
60 113 -114 0
-60 -113 661 0
60 -113 114 0
87 114 115 119 0
87 114 115 -118 0
-87 -114 0
-114 -115 0
-114 118 -119 0
115 -117 293 -468 0
115 116 293 468 0
-115 -293 0
-115 117 -468 0
-115 -116 468 0
-64 116 -658 0
-116 658 0
64 -116 0
-86 117 659 0
86 116 117 0
-86 -117 -659 0
86 -116 -117 0
-91 117 118 0
91 -118 0
-117 -118 0
93 119 -293 0
119 -293 660 0
-119 293 0
-93 -119 -660 0
113 120 -489 0
97 114 120 0
113 114 120 0
97 120 -489 0
-97 -113 -120 0
-114 -120 489 0
-6 121 -122 -161 0
54 121 -122 -161 0
-121 161 0
-121 122 0
6 -54 -121 0
122 -123 -132 151 0
122 123 132 -141 0
122 123 132 151 0
122 -123 -132 -141 0
-122 123 -132 0
-122 -123 132 0
-122 141 -151 0
-7 123 -124 0
-7 123 131 0
7 -123 0
-123 124 -131 0
14 -49 124 -125 0
-14 -49 124 -991 0
49 -124 0
14 -124 125 0
-14 -124 991 0
-16 125 -990 0
16 125 -126 0
-16 -125 990 0
16 -125 126 0
41 126 127 130 0
41 126 127 -129 0
-41 -126 0
-126 -127 0
-126 129 -130 0
127 -128 685 -860 0
20 127 685 860 0
-127 -685 0
-127 128 -860 0
-20 -127 860 0
-40 128 988 0
20 40 128 0
-40 -128 -988 0
-20 40 -128 0
-45 128 129 0
45 -129 0
-128 -129 0
47 130 -685 0
130 -685 989 0
-130 685 0
-47 -130 -989 0
125 131 -881 0
51 126 131 0
125 126 131 0
51 131 -881 0
-51 -125 -131 0
-126 -131 881 0
-55 132 -133 0
-55 132 140 0
55 -132 0
-132 133 -140 0
58 -95 133 -134 0
-58 -95 133 -657 0
95 -133 0
58 -133 134 0
-58 -133 657 0
-60 134 -656 0
60 134 -135 0
-60 -134 656 0
60 -134 135 0
87 135 136 139 0
87 135 136 -138 0
-87 -135 0
-135 -136 0
-135 138 -139 0
136 -137 293 -468 0
64 136 293 468 0
-136 -293 0
-136 137 -468 0
-64 -136 468 0
-86 137 654 0
64 86 137 0
-86 -137 -654 0
-64 86 -137 0
-91 137 138 0
91 -138 0
-137 -138 0
93 139 -293 0
139 -293 655 0
-139 293 0
-93 -139 -655 0
134 140 -489 0
97 135 140 0
134 135 140 0
97 140 -489 0
-97 -134 -140 0
-135 -140 489 0
-7 141 -142 0
-7 141 150 0
7 -141 0
-141 142 -150 0
14 -49 142 -143 0
-14 -49 142 -987 0
49 -142 0
14 -142 143 0
-14 -142 987 0
-16 143 -986 0
16 143 -144 0
-16 -143 986 0
16 -143 144 0
41 144 145 149 0
41 144 145 -148 0
-41 -144 0
-144 -145 0
-144 148 -149 0
145 146 -685 985 0
47 145 146 -685 0
-145 685 0
-145 -146 0
-47 -145 -985 0
-45 146 147 0
45 -146 0
-146 -147 0
20 40 147 0
-40 147 984 0
40 147 690 0
-40 -147 -984 0
-20 40 -147 -690 0
-20 40 148 -690 0
-20 148 -690 860 0
20 -148 0
-148 690 0
-40 -148 -860 0
149 685 984 0
149 685 860 0
40 149 685 0
-149 -685 0
-40 -149 -860 -984 0
143 150 -881 0
51 144 150 0
143 144 150 0
51 150 -881 0
-51 -143 -150 0
-144 -150 881 0
-55 151 -152 0
-55 151 160 0
55 -151 0
-151 152 -160 0
58 -95 152 -153 0
-58 -95 152 -653 0
95 -152 0
58 -152 153 0
-58 -152 653 0
-60 153 -652 0
60 153 -154 0
-60 -153 652 0
60 -153 154 0
87 154 155 159 0
87 154 155 -158 0
-87 -154 0
-154 -155 0
-154 158 -159 0
155 156 -293 651 0
93 155 156 -293 0
-155 293 0
-155 -156 0
-93 -155 -651 0
-91 156 157 0
91 -156 0
-156 -157 0
64 86 157 0
-86 157 650 0
86 157 298 0
-86 -157 -650 0
-64 86 -157 -298 0
-64 86 158 -298 0
-64 158 -298 468 0
64 -158 0
-158 298 0
-86 -158 -468 0
159 293 650 0
159 293 468 0
86 159 293 0
-159 -293 0
-86 -159 -468 -650 0
153 160 -489 0
97 154 160 0
153 154 160 0
97 160 -489 0
-97 -153 -160 0
-154 -160 489 0
141 161 -162 -211 0
-151 161 -162 -211 0
-161 211 0
-161 162 0
-141 151 -161 0
162 163 -189 -200 0
162 -176 189 200 0
162 163 189 200 0
162 -176 -189 -200 0
-162 189 -200 0
-162 -189 200 0
-162 -163 176 0
-7 163 -164 0
-7 163 -174 0
-7 163 -173 0
7 -163 0
-163 164 173 174 0
164 167 -168 0
-45 164 165 -168 0
-164 168 0
-164 -165 -167 0
45 -164 -167 0
-40 165 998 0
40 165 166 0
-40 -165 -998 0
40 -165 -166 0
-20 166 -997 0
-166 997 0
20 -166 0
47 167 -685 0
167 -685 999 0
-167 685 0
-47 -167 -999 0
168 169 -170 0
-168 -169 0
-168 170 0
-165 169 685 -860 0
166 169 685 860 0
-169 -685 0
165 -169 -860 0
-166 -169 860 0
41 170 881 0
16 41 170 171 0
-41 -170 0
-170 -171 -881 0
-16 -170 -881 0
-14 171 172 888 0
-52 171 172 -888 0
-171 -172 0
52 -171 -888 0
14 -171 888 0
-52 53 172 -881 -888 0
52 -172 0
-53 -172 0
-172 881 0
-172 888 0
-14 -49 173 -1001 0
-173 1001 0
14 -173 0
49 -173 0
-16 174 -175 -1000 0
-174 1000 0
16 -174 0
-174 175 0
171 175 -881 0
-175 881 0
-171 -175 0
-55 176 -177 0
-55 176 -187 0
-55 176 -186 0
55 -176 0
-176 177 186 187 0
177 180 -181 0
-91 177 178 -181 0
-177 181 0
-177 -178 -180 0
91 -177 -180 0
-86 178 664 0
86 178 179 0
-86 -178 -664 0
86 -178 -179 0
-64 179 -663 0
-179 663 0
64 -179 0
93 180 -293 0
180 -293 665 0
-180 293 0
-93 -180 -665 0
181 182 -183 0
-181 -182 0
-181 183 0
-178 182 293 -468 0
179 182 293 468 0
-182 -293 0
178 -182 -468 0
-179 -182 468 0
87 183 489 0
60 87 183 184 0
-87 -183 0
-183 -184 -489 0
-60 -183 -489 0
-58 184 185 496 0
-98 184 185 -496 0
-184 -185 0
98 -184 -496 0
58 -184 496 0
-98 99 185 -489 -496 0
98 -185 0
-99 -185 0
-185 489 0
-185 496 0
-58 -95 186 -667 0
-186 667 0
58 -186 0
95 -186 0
-60 187 -188 -666 0
-187 666 0
60 -187 0
-187 188 0
184 188 -489 0
-188 489 0
-184 -188 0
189 -190 -198 0
189 193 -196 -198 0
-189 198 0
-189 190 -193 0
-189 190 196 0
-60 190 192 0
190 -191 192 0
-190 -192 0
60 -190 191 0
-58 191 496 -671 0
58 -191 0
-191 671 0
-191 -496 0
60 192 489 0
192 489 670 0
185 192 489 0
-192 -489 0
-60 -185 -192 -670 0
193 -195 293 -468 0
193 194 293 468 0
-193 -293 0
-193 195 -468 0
-193 -194 468 0
-64 194 -297 0
-194 297 0
64 -194 0
-86 195 668 0
86 194 195 0
-86 -195 -668 0
86 -194 -195 0
87 196 197 0
87 -91 195 196 0
-87 -196 0
91 -196 -197 0
-195 -196 -197 0
93 197 -293 0
197 -293 669 0
-197 293 0
-93 -197 -669 0
-55 198 489 0
-55 -191 198 0
-55 198 -199 0
55 -198 0
191 -198 199 -489 0
184 199 -670 0
60 184 199 0
-184 -199 0
-60 -199 670 0
200 -201 -209 0
200 204 -207 -209 0
-200 209 0
-200 201 -204 0
-200 201 207 0
-16 201 203 0
201 -202 203 0
-201 -203 0
16 -201 202 0
-14 202 888 -1005 0
14 -202 0
-202 1005 0
-202 -888 0
16 203 881 0
203 881 1004 0
172 203 881 0
-203 -881 0
-16 -172 -203 -1004 0
204 -206 685 -860 0
204 205 685 860 0
-204 -685 0
-204 206 -860 0
-204 -205 860 0
-20 205 -689 0
-205 689 0
20 -205 0
-40 206 1002 0
40 205 206 0
-40 -206 -1002 0
40 -205 -206 0
41 207 208 0
41 -45 206 207 0
-41 -207 0
45 -207 -208 0
-206 -207 -208 0
47 208 -685 0
208 -685 1003 0
-208 685 0
-47 -208 -1003 0
-7 209 881 0
-7 -202 209 0
-7 209 -210 0
7 -209 0
202 -209 210 -881 0
171 210 -1004 0
16 171 210 0
-171 -210 0
-16 -210 1004 0
176 211 212 -231 0
-163 211 212 -231 0
-211 231 0
-211 -212 0
163 -176 -211 0
212 213 -222 0
212 -213 222 0
-212 -213 -222 0
-212 213 222 0
-7 213 -214 0
-7 213 -221 0
-7 213 -220 0
7 -213 0
-213 214 220 221 0
214 217 -218 0
-45 214 215 -218 0
-214 218 0
-214 -215 -217 0
45 -214 -217 0
-40 215 1007 0
40 215 216 0
-40 -215 -1007 0
40 -215 -216 0
-20 216 -1006 0
-216 1006 0
20 -216 0
47 217 -685 0
217 -685 1008 0
-217 685 0
-47 -217 -1008 0
-170 218 219 0
170 -218 0
-218 -219 0
-215 219 685 -860 0
216 219 685 860 0
-219 -685 0
215 -219 -860 0
-216 -219 860 0
-14 -49 220 -1010 0
-220 1010 0
14 -220 0
49 -220 0
-16 -175 221 -1009 0
-221 1009 0
16 -221 0
175 -221 0
-55 222 -223 0
-55 222 -230 0
-55 222 -229 0
55 -222 0
-222 223 229 230 0
223 226 -227 0
-91 223 224 -227 0
-223 227 0
-223 -224 -226 0
91 -223 -226 0
-86 224 673 0
86 224 225 0
-86 -224 -673 0
86 -224 -225 0
-64 225 -672 0
-225 672 0
64 -225 0
93 226 -293 0
226 -293 674 0
-226 293 0
-93 -226 -674 0
-183 227 228 0
183 -227 0
-227 -228 0
-224 228 293 -468 0
225 228 293 468 0
-228 -293 0
224 -228 -468 0
-225 -228 468 0
-58 -95 229 -676 0
-229 676 0
58 -229 0
95 -229 0
-60 -188 230 -675 0
-230 675 0
60 -230 0
188 -230 0
231 232 -258 -270 0
231 -246 -258 -270 0
-231 270 0
-231 258 0
-231 -232 246 0
232 233 -239 -245 0
232 233 -239 293 0
-232 239 0
-232 -233 0
-232 245 -293 0
233 234 238 0
233 236 238 0
233 234 -236 293 0
-233 -234 -236 0
-233 236 -238 0
-233 -238 -293 0
-69 234 -641 0
65 -69 234 235 0
69 -234 0
-234 -235 641 0
-65 -234 641 0
235 304 678 0
-235 -304 0
-235 -678 0
236 -237 468 469 0
-236 237 0
-236 -469 0
-236 -468 0
237 470 471 472 0
-237 -470 0
-237 -472 0
-237 -471 0
238 412 -679 0
-234 238 -412 0
234 -238 -412 0
-238 412 679 0
-56 239 240 -243 0
56 -239 0
-239 -240 0
-239 243 0
-3 240 242 525 0
-3 240 -241 242 0
3 -240 0
-240 -242 0
-240 241 -525 0
-4 241 0
241 -534 540 0
241 534 541 0
4 -241 -534 -540 0
4 -241 534 -541 0
4 242 -534 540 0
4 242 534 541 0
-4 -242 0
-242 534 -541 0
-242 -534 -540 0
87 243 244 0
87 99 243 0
87 243 489 0
-87 -243 0
-99 -243 -244 -489 0
-98 244 -496 0
-244 496 0
98 -244 0
92 -238 245 0
-92 -245 0
238 -245 0
246 247 -254 685 0
246 247 -253 -254 0
-246 254 0
-246 -247 0
-246 253 -685 0
247 248 252 0
247 250 252 0
247 248 -250 685 0
-247 -248 -250 0
-247 250 -252 0
-247 -252 -685 0
-21 248 -975 0
-21 35 248 249 0
21 -248 0
-248 -249 975 0
-35 -248 975 0
249 696 1012 0
-249 -696 0
-249 -1012 0
250 -251 860 861 864 0
-250 251 0
-250 -864 0
-250 -860 0
-250 -861 0
251 862 863 0
-251 -862 0
-251 -863 0
252 804 -1013 0
-248 252 -804 0
248 -252 -804 0
-252 804 1013 0
46 -252 253 0
-46 -253 0
252 -253 0
9 254 -255 0
12 254 -255 -917 0
-254 255 0
-9 -12 -254 0
-9 -254 917 0
255 -256 -946 0
-255 946 0
-255 256 0
41 256 257 0
41 53 256 0
41 256 881 0
-41 -256 0
-53 -256 -257 -881 0
-52 257 -888 0
-257 888 0
52 -257 0
258 259 262 265 -266 0
258 -259 -262 265 -266 0
-258 -265 0
-258 259 -262 0
-258 266 0
-258 -259 262 0
-69 -239 259 260 -261 0
-259 261 0
69 -259 0
239 -259 0
-259 -260 0
-92 260 -293 0
-260 293 0
92 -260 0
261 -641 643 0
-261 641 0
-261 -643 0
-21 -254 262 -263 264 0
-262 263 0
-262 -264 0
21 -262 0
254 -262 0
263 -975 977 0
-263 975 0
-263 -977 0
-46 264 -685 0
-264 685 0
46 -264 0
-10 -11 -12 265 0
10 -265 0
11 -265 0
12 -265 0
22 29 266 -267 0
-28 29 266 -267 0
-266 267 0
-29 -266 0
-22 28 -266 0
35 -256 264 267 -268 0
256 -267 0
-264 -267 0
-35 -267 0
-267 268 0
268 269 -689 -946 0
268 269 690 -946 0
-268 946 0
-268 -269 0
-268 689 -690 0
269 687 688 0
-269 -687 0
-269 -688 0
246 270 271 279 0
-232 270 -271 -279 0
-232 270 271 279 0
246 270 -271 -279 0
-270 271 -279 0
-270 -271 279 0
232 -246 -270 0
-254 271 272 0
254 -271 0
-271 -272 0
250 272 -273 0
272 277 278 0
272 -273 277 0
-272 273 -278 0
-250 -272 -277 0
-272 273 -277 0
273 274 -804 0
-21 273 -276 804 0
-273 -274 -804 0
21 -273 804 0
-273 276 804 0
-21 274 -275 0
21 -274 0
-274 275 0
275 -975 -977 0
35 275 975 0
275 -975 -981 0
-35 -275 975 0
-275 -975 977 981 0
276 -975 977 983 0
-276 975 0
-276 -983 0
-276 -977 0
250 277 685 0
-274 277 685 0
-277 -685 0
-250 274 -277 0
46 278 -685 0
-278 685 0
-46 -278 0
279 -284 293 0
92 279 280 -284 0
-279 284 0
-279 -280 -293 0
-92 -279 -293 0
280 281 -412 0
-69 280 -283 412 0
-280 -281 -412 0
69 -280 412 0
-280 283 412 0
-69 281 -282 0
69 -281 0
-281 282 0
282 -641 -643 0
65 282 641 0
282 -641 -647 0
-65 -282 641 0
-282 -641 643 647 0
283 -641 643 649 0
-283 641 0
-283 -649 0
-283 -643 0
-239 284 -285 286 0
-239 280 284 286 0
239 -284 0
-284 -286 0
-280 -284 285 0
285 468 469 0
-285 -468 0
-285 -469 0
281 286 -287 0
237 -280 286 0
237 286 -287 0
-280 281 286 0
280 -286 287 0
-237 -281 -286 0
-236 287 293 0
-287 -293 0
236 -287 0
65 -243 288 289 -290 0
243 -288 0
-288 -289 0
-65 -288 0
-288 290 0
77 81 83 289 0
-77 -289 0
-83 -289 0
-81 -289 0
70 290 -291 -554 0
-290 554 0
-70 -290 0
-290 291 0
260 291 -292 298 0
260 291 -292 -297 0
-291 292 0
-260 -291 0
-291 297 -298 0
292 -295 -583 -612 0
292 -296 -583 -612 0
-292 612 0
-292 583 0
-292 295 296 0
1 2 0
-1 -2 0
1019 0

